(set-info :origin "NTS benchmark converted to SMT-LIB2 using Eldarica (http://lara.epfl.ch/w/eldarica)")
(set-logic HORN)
(declare-fun INV3 ((_ BitVec 32) (_ BitVec 32) (_ BitVec 32) (_ BitVec 32) (_ BitVec 32) (_ BitVec 32) (_ BitVec 32) (_ BitVec 32)) Bool)
(declare-fun INV4 ((_ BitVec 32) (_ BitVec 32) (_ BitVec 32) (_ BitVec 32) (_ BitVec 32) (_ BitVec 32) (_ BitVec 32) (_ BitVec 32)) Bool)
(declare-fun INV1 ((_ BitVec 32) (_ BitVec 32) (_ BitVec 32) (_ BitVec 32) (_ BitVec 32) (_ BitVec 32) (_ BitVec 32) (_ BitVec 32)) Bool)
(declare-fun INV2 ((_ BitVec 32) (_ BitVec 32) (_ BitVec 32) (_ BitVec 32) (_ BitVec 32) (_ BitVec 32) (_ BitVec 32) (_ BitVec 32)) Bool)
(assert (forall ((A (_ BitVec 32)) (B (_ BitVec 32)) (C (_ BitVec 32)) (D (_ BitVec 32)) (E (_ BitVec 32)) (F (_ BitVec 32)) (G (_ BitVec 32)) (H (_ BitVec 32)) (I (_ BitVec 32)) (J (_ BitVec 32)))(=> (and (and (and (and (and (and (and (= (bvadd I (_ bv1 32)) E) (= (bvadd J (_ bv2 32)) F)) (not (bvsge A B))) (bvsge (bvadd (bvsub D I) (bvneg (_ bv1 32))) (_ bv0 32))) (INV3 A B C D I J G H)) (bvsge (bvadd (bvsub (_ bv1 32) H) (bvneg (_ bv1 32))) (_ bv0 32))) (not (bvsge (bvadd (bvsub (_ bv1 32) G) (bvneg (_ bv1 32))) (_ bv0 32)))) (= G H)) (INV3 A B C D E F G H))))
(assert (forall ((A (_ BitVec 32)) (B (_ BitVec 32)) (C (_ BitVec 32)) (D (_ BitVec 32)) (E (_ BitVec 32)) (F (_ BitVec 32)) (G (_ BitVec 32)) (H (_ BitVec 32)) (I (_ BitVec 32)) (J (_ BitVec 32)) (K (_ BitVec 32)) (L (_ BitVec 32)))(=> (and (and (and (and (and (and (and (and (and (= (bvadd I (_ bv1 32)) B) (= (bvadd J (_ bv2 32)) C)) (= (bvadd K (_ bv1 32)) E)) (= (bvadd L (_ bv2 32)) F)) (bvsge A I)) (bvsge (bvadd (bvsub D K) (bvneg (_ bv1 32))) (_ bv0 32))) (INV3 A I J D K L G H)) (bvsge (bvadd (bvsub (_ bv1 32) H) (bvneg (_ bv1 32))) (_ bv0 32))) (not (bvsge (bvadd (bvsub (_ bv1 32) G) (bvneg (_ bv1 32))) (_ bv0 32)))) (= G H)) (INV3 A B C D E F G H))))
(assert (forall ((A (_ BitVec 32)) (B (_ BitVec 32)) (C (_ BitVec 32)) (D (_ BitVec 32)) (E (_ BitVec 32)) (F (_ BitVec 32)) (G (_ BitVec 32)) (H (_ BitVec 32)) (I (_ BitVec 32)) (J (_ BitVec 32)))(=> (and (and (and (and (and (and (and (= (bvadd I (_ bv1 32)) B) (= (bvadd J (_ bv2 32)) C)) (bvsge A I)) (not (bvsge (bvadd (bvsub D E) (bvneg (_ bv1 32))) (_ bv0 32)))) (INV3 A I J D E F G H)) (bvsge (bvadd (bvsub (_ bv1 32) H) (bvneg (_ bv1 32))) (_ bv0 32))) (not (bvsge (bvadd (bvsub (_ bv1 32) G) (bvneg (_ bv1 32))) (_ bv0 32)))) (= G H)) (INV3 A B C D E F G H))))
(assert (not (exists ((A (_ BitVec 32)) (B (_ BitVec 32)) (C (_ BitVec 32)) (D (_ BitVec 32)) (E (_ BitVec 32)) (F (_ BitVec 32)) (G (_ BitVec 32)) (H (_ BitVec 32)))(and (and (and (and (and (and (not (= A B)) (not (bvsge C D))) (not (bvsge (bvadd (bvsub E F) (bvneg (_ bv1 32))) (_ bv0 32)))) (INV3 C D A E F B G H)) (bvsge (bvadd (bvsub (_ bv1 32) H) (bvneg (_ bv1 32))) (_ bv0 32))) (not (bvsge (bvadd (bvsub (_ bv1 32) G) (bvneg (_ bv1 32))) (_ bv0 32)))) (= G H)))))
(assert (forall ((A (_ BitVec 32)) (B (_ BitVec 32)) (C (_ BitVec 32)) (D (_ BitVec 32)) (E (_ BitVec 32)) (F (_ BitVec 32)) (G (_ BitVec 32)))(=> (and (and (and (and (and (and (and (= (bvmul (bvneg (_ bv1 32)) B) (bvneg (_ bv1 32))) (= (bvmul (bvneg (_ bv1 32)) C) (_ bv0 32))) (= (bvmul (bvneg (_ bv1 32)) D) (bvneg (_ bv1 32)))) (= (bvmul (bvneg (_ bv1 32)) E) (bvneg (_ bv1 32)))) (= (bvmul (bvneg (_ bv1 32)) F) (bvneg (_ bv2 32)))) (bvsge (bvadd (bvsub (_ bv1 32) G) (bvneg (_ bv1 32))) (_ bv0 32))) (not (bvsge (bvadd (bvsub (_ bv1 32) A) (bvneg (_ bv1 32))) (_ bv0 32)))) (= A G)) (INV3 A B C D E F A G))))
(assert (forall ((A (_ BitVec 32)) (B (_ BitVec 32)) (C (_ BitVec 32)) (D (_ BitVec 32)) (E (_ BitVec 32)) (F (_ BitVec 32)) (G (_ BitVec 32)) (H (_ BitVec 32)) (I (_ BitVec 32)) (J (_ BitVec 32)))(=> (and (and (and (and (and (and (and (= (bvadd I (_ bv1 32)) E) (= (bvadd J (_ bv2 32)) F)) (not (bvsge A B))) (bvsge (bvadd (bvsub D I) (bvneg (_ bv1 32))) (_ bv0 32))) (INV4 A B C D I J G H)) (not (bvsge (bvadd (bvsub (_ bv1 32) H) (bvneg (_ bv1 32))) (_ bv0 32)))) (not (bvsge (bvadd (bvsub (_ bv1 32) G) (bvneg (_ bv1 32))) (_ bv0 32)))) (= G H)) (INV4 A B C D E F G H))))
(assert (forall ((A (_ BitVec 32)) (B (_ BitVec 32)) (C (_ BitVec 32)) (D (_ BitVec 32)) (E (_ BitVec 32)) (F (_ BitVec 32)) (G (_ BitVec 32)) (H (_ BitVec 32)) (I (_ BitVec 32)) (J (_ BitVec 32)) (K (_ BitVec 32)) (L (_ BitVec 32)))(=> (and (and (and (and (and (and (and (and (and (= (bvadd I (_ bv1 32)) B) (= (bvadd J (_ bv2 32)) C)) (= (bvadd K (_ bv1 32)) E)) (= (bvadd L (_ bv2 32)) F)) (bvsge A I)) (bvsge (bvadd (bvsub D K) (bvneg (_ bv1 32))) (_ bv0 32))) (INV4 A I J D K L G H)) (not (bvsge (bvadd (bvsub (_ bv1 32) H) (bvneg (_ bv1 32))) (_ bv0 32)))) (not (bvsge (bvadd (bvsub (_ bv1 32) G) (bvneg (_ bv1 32))) (_ bv0 32)))) (= G H)) (INV4 A B C D E F G H))))
(assert (forall ((A (_ BitVec 32)) (B (_ BitVec 32)) (C (_ BitVec 32)) (D (_ BitVec 32)) (E (_ BitVec 32)) (F (_ BitVec 32)) (G (_ BitVec 32)) (H (_ BitVec 32)) (I (_ BitVec 32)) (J (_ BitVec 32)))(=> (and (and (and (and (and (and (and (= (bvadd I (_ bv1 32)) B) (= (bvadd J (_ bv2 32)) C)) (bvsge A I)) (not (bvsge (bvadd (bvsub D E) (bvneg (_ bv1 32))) (_ bv0 32)))) (INV4 A I J D E F G H)) (not (bvsge (bvadd (bvsub (_ bv1 32) H) (bvneg (_ bv1 32))) (_ bv0 32)))) (not (bvsge (bvadd (bvsub (_ bv1 32) G) (bvneg (_ bv1 32))) (_ bv0 32)))) (= G H)) (INV4 A B C D E F G H))))
(assert (not (exists ((A (_ BitVec 32)) (B (_ BitVec 32)) (C (_ BitVec 32)) (D (_ BitVec 32)) (E (_ BitVec 32)) (F (_ BitVec 32)) (G (_ BitVec 32)) (H (_ BitVec 32)))(and (and (and (and (and (and (not (= A B)) (not (bvsge C D))) (not (bvsge (bvadd (bvsub E F) (bvneg (_ bv1 32))) (_ bv0 32)))) (INV4 C D A E F B G H)) (not (bvsge (bvadd (bvsub (_ bv1 32) H) (bvneg (_ bv1 32))) (_ bv0 32)))) (not (bvsge (bvadd (bvsub (_ bv1 32) G) (bvneg (_ bv1 32))) (_ bv0 32)))) (= G H)))))
(assert (forall ((A (_ BitVec 32)) (B (_ BitVec 32)) (C (_ BitVec 32)) (D (_ BitVec 32)) (E (_ BitVec 32)) (F (_ BitVec 32)))(=> (and (and (and (and (and (and (= (bvmul (bvneg (_ bv1 32)) B) (bvneg (_ bv1 32))) (= (bvmul (bvneg (_ bv1 32)) C) (_ bv0 32))) (= (bvmul (bvneg (_ bv1 32)) E) (bvneg (_ bv1 32)))) (= (bvmul (bvneg (_ bv1 32)) F) (bvneg (_ bv2 32)))) (not (bvsge (bvadd (bvsub (_ bv1 32) D) (bvneg (_ bv1 32))) (_ bv0 32)))) (not (bvsge (bvadd (bvsub (_ bv1 32) A) (bvneg (_ bv1 32))) (_ bv0 32)))) (= A D)) (INV4 A B C D E F A D))))
(assert (forall ((A (_ BitVec 32)) (B (_ BitVec 32)) (C (_ BitVec 32)) (D (_ BitVec 32)) (E (_ BitVec 32)) (F (_ BitVec 32)) (G (_ BitVec 32)) (H (_ BitVec 32)) (I (_ BitVec 32)) (J (_ BitVec 32)))(=> (and (and (and (and (and (and (and (= (bvadd I (_ bv1 32)) E) (= (bvadd J (_ bv2 32)) F)) (not (bvsge A B))) (bvsge (bvadd (bvsub D I) (bvneg (_ bv1 32))) (_ bv0 32))) (INV1 A B C D I J G H)) (bvsge (bvadd (bvsub (_ bv1 32) H) (bvneg (_ bv1 32))) (_ bv0 32))) (bvsge (bvadd (bvsub (_ bv1 32) G) (bvneg (_ bv1 32))) (_ bv0 32))) (= G H)) (INV1 A B C D E F G H))))
(assert (forall ((A (_ BitVec 32)) (B (_ BitVec 32)) (C (_ BitVec 32)) (D (_ BitVec 32)) (E (_ BitVec 32)) (F (_ BitVec 32)) (G (_ BitVec 32)) (H (_ BitVec 32)) (I (_ BitVec 32)) (J (_ BitVec 32)) (K (_ BitVec 32)) (L (_ BitVec 32)))(=> (and (and (and (and (and (and (and (and (and (= (bvadd I (_ bv1 32)) B) (= (bvadd J (_ bv2 32)) C)) (= (bvadd K (_ bv1 32)) E)) (= (bvadd L (_ bv2 32)) F)) (bvsge A I)) (bvsge (bvadd (bvsub D K) (bvneg (_ bv1 32))) (_ bv0 32))) (INV1 A I J D K L G H)) (bvsge (bvadd (bvsub (_ bv1 32) H) (bvneg (_ bv1 32))) (_ bv0 32))) (bvsge (bvadd (bvsub (_ bv1 32) G) (bvneg (_ bv1 32))) (_ bv0 32))) (= G H)) (INV1 A B C D E F G H))))
(assert (forall ((A (_ BitVec 32)) (B (_ BitVec 32)) (C (_ BitVec 32)) (D (_ BitVec 32)) (E (_ BitVec 32)) (F (_ BitVec 32)) (G (_ BitVec 32)) (H (_ BitVec 32)) (I (_ BitVec 32)) (J (_ BitVec 32)))(=> (and (and (and (and (and (and (and (= (bvadd I (_ bv1 32)) B) (= (bvadd J (_ bv2 32)) C)) (bvsge A I)) (not (bvsge (bvadd (bvsub D E) (bvneg (_ bv1 32))) (_ bv0 32)))) (INV1 A I J D E F G H)) (bvsge (bvadd (bvsub (_ bv1 32) H) (bvneg (_ bv1 32))) (_ bv0 32))) (bvsge (bvadd (bvsub (_ bv1 32) G) (bvneg (_ bv1 32))) (_ bv0 32))) (= G H)) (INV1 A B C D E F G H))))
(assert (not (exists ((A (_ BitVec 32)) (B (_ BitVec 32)) (C (_ BitVec 32)) (D (_ BitVec 32)) (E (_ BitVec 32)) (F (_ BitVec 32)) (G (_ BitVec 32)) (H (_ BitVec 32)))(and (and (and (and (and (and (not (= A B)) (not (bvsge C D))) (not (bvsge (bvadd (bvsub E F) (bvneg (_ bv1 32))) (_ bv0 32)))) (INV1 C D A E F B G H)) (bvsge (bvadd (bvsub (_ bv1 32) H) (bvneg (_ bv1 32))) (_ bv0 32))) (bvsge (bvadd (bvsub (_ bv1 32) G) (bvneg (_ bv1 32))) (_ bv0 32))) (= G H)))))
(assert (forall ((A (_ BitVec 32)) (B (_ BitVec 32)) (C (_ BitVec 32)) (D (_ BitVec 32)) (E (_ BitVec 32)) (F (_ BitVec 32)) (G (_ BitVec 32)) (H (_ BitVec 32)))(=> (and (and (and (and (and (and (and (and (= (bvmul (bvneg (_ bv1 32)) A) (bvneg (_ bv1 32))) (= (bvmul (bvneg (_ bv1 32)) B) (bvneg (_ bv1 32)))) (= (bvmul (bvneg (_ bv1 32)) C) (_ bv0 32))) (= (bvmul (bvneg (_ bv1 32)) D) (bvneg (_ bv1 32)))) (= (bvmul (bvneg (_ bv1 32)) E) (bvneg (_ bv1 32)))) (= (bvmul (bvneg (_ bv1 32)) F) (bvneg (_ bv2 32)))) (bvsge (bvadd (bvsub (_ bv1 32) H) (bvneg (_ bv1 32))) (_ bv0 32))) (bvsge (bvadd (bvsub (_ bv1 32) G) (bvneg (_ bv1 32))) (_ bv0 32))) (= G H)) (INV1 A B C D E F G H))))
(assert (forall ((A (_ BitVec 32)) (B (_ BitVec 32)) (C (_ BitVec 32)) (D (_ BitVec 32)) (E (_ BitVec 32)) (F (_ BitVec 32)) (G (_ BitVec 32)) (H (_ BitVec 32)) (I (_ BitVec 32)) (J (_ BitVec 32)))(=> (and (and (and (and (and (and (and (= (bvadd I (_ bv1 32)) E) (= (bvadd J (_ bv2 32)) F)) (not (bvsge A B))) (bvsge (bvadd (bvsub D I) (bvneg (_ bv1 32))) (_ bv0 32))) (INV2 A B C D I J G H)) (not (bvsge (bvadd (bvsub (_ bv1 32) H) (bvneg (_ bv1 32))) (_ bv0 32)))) (bvsge (bvadd (bvsub (_ bv1 32) G) (bvneg (_ bv1 32))) (_ bv0 32))) (= G H)) (INV2 A B C D E F G H))))
(assert (forall ((A (_ BitVec 32)) (B (_ BitVec 32)) (C (_ BitVec 32)) (D (_ BitVec 32)) (E (_ BitVec 32)) (F (_ BitVec 32)) (G (_ BitVec 32)) (H (_ BitVec 32)) (I (_ BitVec 32)) (J (_ BitVec 32)) (K (_ BitVec 32)) (L (_ BitVec 32)))(=> (and (and (and (and (and (and (and (and (and (= (bvadd I (_ bv1 32)) B) (= (bvadd J (_ bv2 32)) C)) (= (bvadd K (_ bv1 32)) E)) (= (bvadd L (_ bv2 32)) F)) (bvsge A I)) (bvsge (bvadd (bvsub D K) (bvneg (_ bv1 32))) (_ bv0 32))) (INV2 A I J D K L G H)) (not (bvsge (bvadd (bvsub (_ bv1 32) H) (bvneg (_ bv1 32))) (_ bv0 32)))) (bvsge (bvadd (bvsub (_ bv1 32) G) (bvneg (_ bv1 32))) (_ bv0 32))) (= G H)) (INV2 A B C D E F G H))))
(assert (forall ((A (_ BitVec 32)) (B (_ BitVec 32)) (C (_ BitVec 32)) (D (_ BitVec 32)) (E (_ BitVec 32)) (F (_ BitVec 32)) (G (_ BitVec 32)) (H (_ BitVec 32)) (I (_ BitVec 32)) (J (_ BitVec 32)))(=> (and (and (and (and (and (and (and (= (bvadd I (_ bv1 32)) B) (= (bvadd J (_ bv2 32)) C)) (bvsge A I)) (not (bvsge (bvadd (bvsub D E) (bvneg (_ bv1 32))) (_ bv0 32)))) (INV2 A I J D E F G H)) (not (bvsge (bvadd (bvsub (_ bv1 32) H) (bvneg (_ bv1 32))) (_ bv0 32)))) (bvsge (bvadd (bvsub (_ bv1 32) G) (bvneg (_ bv1 32))) (_ bv0 32))) (= G H)) (INV2 A B C D E F G H))))
(assert (not (exists ((A (_ BitVec 32)) (B (_ BitVec 32)) (C (_ BitVec 32)) (D (_ BitVec 32)) (E (_ BitVec 32)) (F (_ BitVec 32)) (G (_ BitVec 32)) (H (_ BitVec 32)))(and (and (and (and (and (and (not (= A B)) (not (bvsge C D))) (not (bvsge (bvadd (bvsub E F) (bvneg (_ bv1 32))) (_ bv0 32)))) (INV2 C D A E F B G H)) (not (bvsge (bvadd (bvsub (_ bv1 32) H) (bvneg (_ bv1 32))) (_ bv0 32)))) (bvsge (bvadd (bvsub (_ bv1 32) G) (bvneg (_ bv1 32))) (_ bv0 32))) (= G H)))))
(assert (forall ((A (_ BitVec 32)) (B (_ BitVec 32)) (C (_ BitVec 32)) (D (_ BitVec 32)) (E (_ BitVec 32)) (F (_ BitVec 32)) (G (_ BitVec 32)))(=> (and (and (and (and (and (and (and (= (bvmul (bvneg (_ bv1 32)) A) (bvneg (_ bv1 32))) (= (bvmul (bvneg (_ bv1 32)) B) (bvneg (_ bv1 32)))) (= (bvmul (bvneg (_ bv1 32)) C) (_ bv0 32))) (= (bvmul (bvneg (_ bv1 32)) E) (bvneg (_ bv1 32)))) (= (bvmul (bvneg (_ bv1 32)) F) (bvneg (_ bv2 32)))) (not (bvsge (bvadd (bvsub (_ bv1 32) D) (bvneg (_ bv1 32))) (_ bv0 32)))) (bvsge (bvadd (bvsub (_ bv1 32) G) (bvneg (_ bv1 32))) (_ bv0 32))) (= G D)) (INV2 A B C D E F G D))))
(check-sat)
